SAT/35333_17.param
$ LBS instance with n = 17, seed = 35333
letting cards be [19,33,25,38,32,17,4,35,20,22,43,2,41,46,1,45,16]
