SAT/35333_17.param.solution
language ESSENCE' 1.0
letting M be [[19, 33, 25, 38, 32, 17, 4, 35, 20, 22, 43, 2, 41, 46, 1, 45, 16], 
[19, 33, 25, 32, 17, 4, 35, 20, 22, 43, 2, 41, 46, 1, 45, 16, -1], 
[32, 33, 25, 17, 4, 35, 20, 22, 43, 2, 41, 46, 1, 45, 16, -1, -1], 
[32, 33, 25, 20, 4, 35, 22, 43, 2, 41, 46, 1, 45, 16, -1, -1, -1], 
[32, 33, 25, 20, 4, 22, 43, 2, 41, 46, 1, 45, 16, -1, -1, -1, -1], 
[32, 33, 22, 20, 4, 43, 2, 41, 46, 1, 45, 16, -1, -1, -1, -1, -1], 
[32, 33, 20, 4, 43, 2, 41, 46, 1, 45, 16, -1, -1, -1, -1, -1, -1], 
[32, 33, 20, 4, 46, 2, 41, 1, 45, 16, -1, -1, -1, -1, -1, -1, -1], 
[32, 46, 20, 4, 2, 41, 1, 45, 16, -1, -1, -1, -1, -1, -1, -1, -1], 
[32, 46, 20, 1, 2, 41, 45, 16, -1, -1, -1, -1, -1, -1, -1, -1, -1], 
[32, 46, 20, 2, 41, 45, 16, -1, -1, -1, -1, -1, -1, -1, -1, -1, -1], 
[32, 46, 20, 41, 45, 16, -1, -1, -1, -1, -1, -1, -1, -1, -1, -1, -1], 
[32, 46, 20, 45, 16, -1, -1, -1, -1, -1, -1, -1, -1, -1, -1, -1, -1], 
[45, 46, 20, 16, -1, -1, -1, -1, -1, -1, -1, -1, -1, -1, -1, -1, -1], 
[46, 20, 16, -1, -1, -1, -1, -1, -1, -1, -1, -1, -1, -1, -1, -1, -1], 
[20, 16, -1, -1, -1, -1, -1, -1, -1, -1, -1, -1, -1, -1, -1, -1, -1], 
[16, -1, -1, -1, -1, -1, -1, -1, -1, -1, -1, -1, -1, -1, -1, -1, -1]]
